benchmarks/bfuzz0/22834630826004267742879287218462795.smt2
(set-logic QF_FP)
(declare-const x0 (_ FloatingPoint 8 24))
(declare-const x1 (_ FloatingPoint 8 24))
(declare-const x2 (_ FloatingPoint 8 24))
(declare-const x3 (_ FloatingPoint 8 24))
(declare-const x4 (_ FloatingPoint 8 24))
(declare-const x5 (_ FloatingPoint 8 24))
(declare-const x6 (_ FloatingPoint 8 24))
(declare-const x7 (_ FloatingPoint 8 24))
(declare-const x8 (_ FloatingPoint 8 24))
(declare-const x9 (_ FloatingPoint 8 24))
(declare-const x10 (_ FloatingPoint 8 24))
(declare-const x11 (_ FloatingPoint 8 24))
(assert (fp.gt (fp.add RNE (fp.div RNE (fp.add RNE x9 x3) (fp.div RNE x4 x10)) (fp.sub RNE (fp.div RNE x1 x11) (fp.add RNE x0 x7))) (fp.mul RNE (fp.add RNE (fp.sub RNE x2 x10) (fp.mul RNE x8 x8)) (fp.mul RNE (fp.sub RNE x10 x11) (fp.neg x7)))))
(assert (fp.lt (fp.add RNE (fp.neg (fp.neg x1)) (fp.div RNE (fp.mul RNE x2 x10) (fp.add RNE x10 x11))) (fp.sub RNE (fp.add RNE (fp.mul RNE x3 x2) (fp.div RNE x11 x7)) (fp.add RNE (fp.add RNE x2 x11) (fp.div RNE x4 x4)))))
(assert (fp.geq (fp.sub RNE (fp.div RNE (fp.add RNE x3 x2) (fp.mul RNE x8 x6)) (fp.add RNE (fp.add RNE x4 x8) (fp.sub RNE x8 x7))) (fp.add RNE (fp.add RNE (fp.add RNE x7 x6) (fp.div RNE x2 x2)) (fp.add RNE (fp.neg x5) (fp.add RNE x1 x3)))))
(assert (fp.geq (fp.sub RNE (fp.mul RNE (fp.neg x4) (fp.neg x1)) (fp.div RNE (fp.sub RNE x8 x6) (fp.add RNE x11 x10))) (fp.div RNE (fp.sub RNE (fp.neg x4) (fp.add RNE x7 x8)) (fp.sub RNE (fp.div RNE x6 x5) (fp.mul RNE x2 x6)))))
(assert (fp.leq (fp.sub RNE (fp.mul RNE (fp.sub RNE x10 x2) (fp.div RNE x11 x9)) (fp.neg (fp.sub RNE x6 x5))) (fp.add RNE (fp.add RNE (fp.add RNE x11 x0) (fp.add RNE x6 x6)) (fp.add RNE (fp.sub RNE x8 x7) (fp.neg x7)))))
(assert (fp.gt (fp.neg (fp.neg (fp.div RNE x3 x5))) (fp.mul RNE (fp.add RNE (fp.sub RNE x3 x2) (fp.sub RNE x1 x7)) (fp.div RNE (fp.neg x0) (fp.neg x2)))))
(assert (fp.geq (fp.sub RNE (fp.div RNE (fp.sub RNE x9 x3) (fp.div RNE x7 x10)) (fp.mul RNE (fp.div RNE x9 x3) (fp.neg x5))) (fp.sub RNE (fp.add RNE (fp.add RNE x0 x0) (fp.mul RNE x7 x1)) (fp.div RNE (fp.neg x1) (fp.div RNE x8 x0)))))
(assert (fp.geq (fp.sub RNE (fp.neg (fp.add RNE x0 x3)) (fp.mul RNE (fp.neg x8) (fp.sub RNE x2 x10))) (fp.mul RNE (fp.mul RNE (fp.sub RNE x11 x9) (fp.add RNE x7 x11)) (fp.mul RNE (fp.add RNE x0 x6) (fp.neg x1)))))
(assert (fp.eq (fp.neg (fp.neg (fp.neg x10))) (fp.sub RNE (fp.neg (fp.add RNE x8 x7)) (fp.mul RNE (fp.mul RNE x7 x5) (fp.add RNE x0 x6)))))
(assert (fp.gt (fp.mul RNE (fp.sub RNE (fp.neg x8) (fp.div RNE x8 x4)) (fp.div RNE (fp.sub RNE x11 x10) (fp.sub RNE x7 x3))) (fp.div RNE (fp.div RNE (fp.add RNE x8 x7) (fp.add RNE x5 x1)) (fp.sub RNE (fp.neg x3) (fp.div RNE x6 x5)))))
(assert (fp.gt (fp.sub RNE (fp.sub RNE (fp.sub RNE x5 x2) (fp.mul RNE x0 x10)) (fp.mul RNE (fp.add RNE x7 x11) (fp.div RNE x9 x1))) (fp.neg (fp.sub RNE (fp.add RNE x1 x4) (fp.div RNE x7 x8)))))
(assert (fp.gt (fp.div RNE (fp.add RNE (fp.add RNE x2 x7) (fp.neg x1)) (fp.neg (fp.mul RNE x1 x4))) (fp.add RNE (fp.div RNE (fp.mul RNE x3 x1) (fp.neg x3)) (fp.div RNE (fp.div RNE x4 x7) (fp.sub RNE x11 x9)))))
(check-sat)
