db/data/22834630826004267742879287218462795.z3.out
-------------------
2500.263527750
